Sat 19 May 19:21:21 CEST 2018
CPXPARAM_TimeLimit                               45
CPXPARAM_Threads                                 1
CPXPARAM_MIP_Strategy_CallbackReducedLP          0
Tried aggregator 5 times.
MIP Presolve eliminated 2631 rows and 2688 columns.
MIP Presolve modified 7890 coefficients.
Aggregator did 14374 substitutions.
Reduced MIP has 20402 rows, 14487 columns, and 44414 nonzeros.
Reduced MIP has 13193 binaries, 10 generals, 0 SOSs, and 1725 indicators.
Presolve time = 0.24 sec. (585.77 ticks)
Probing time = 0.17 sec. (129.55 ticks)
Tried aggregator 3 times.
Aggregator did 9442 substitutions.
Reduced MIP has 10960 rows, 5045 columns, and 25530 nonzeros.
Reduced MIP has 3751 binaries, 1294 generals, 0 SOSs, and 1725 indicators.
Presolve time = 0.04 sec. (51.74 ticks)
Probing time = 0.11 sec. (107.33 ticks)
Tried aggregator 1 time.
Reduced MIP has 10960 rows, 5045 columns, and 25530 nonzeros.
Reduced MIP has 3751 binaries, 1294 generals, 0 SOSs, and 1725 indicators.
Presolve time = 0.02 sec. (22.30 ticks)
Probing time = 0.01 sec. (5.98 ticks)
Clique table members: 147337.
MIP emphasis: balance optimality and feasibility.
MIP search method: dynamic search.
Parallel mode: none, using 1 thread.
Root relaxation solution time = 0.13 sec. (144.71 ticks)

        Nodes                                         Cuts/
   Node  Left     Objective  IInf  Best Integer    Best Bound    ItCnt     Gap

      0     0        0.0000  2596                      0.0000     1253         
      0     2        0.0000   951                      0.0000     1253         
Elapsed time = 6.62 sec. (7326.32 ticks, tree = 0.01 MB, solutions = 0)
      3     5        0.0000  1149                      0.0000     3858         
     12    14       18.0000   569                      0.0000     5444         
     55    57        0.0000   635                      0.0000     5964         
    118   120        0.0000   276                      0.0000     6349         
    191   193        0.0000   197                      0.0000     6469         
    240   242        9.0000   108                      0.0000     6651         
    275   277        3.0000   121                      0.0000     6840         
    314   316        0.0000   122                      0.0000     7074         
    340   342        8.0000   105                      0.0000     7447         
    487   489       12.0000   133                      0.0000     9239         
Elapsed time = 8.89 sec. (10543.16 ticks, tree = 2.21 MB, solutions = 0)
    489   491        1.0000  1119                      1.0000    11459         
    519   510       12.0000   728                      1.0000    15545         
*   546   358      integral     0       17.0000        1.0000    15650   94.12%
*   558   251      integral     0       15.0000        1.0000    15835   93.33%
*   560   164      integral     0       14.0000        1.0000    15853   92.86%
*   589+  111                           12.0000        1.0000            91.67%
*   609+   88                           10.0000        1.0000            90.00%
    609    86       10.0000     1       10.0000        1.0000    17719   90.00%
*   629+   75                            9.0000        1.0000            88.89%
*   639+   66                            8.0000        1.0000            87.50%
    640    65        1.0000   470        8.0000        1.0000    20754   87.50%
*   689+   81                            7.0000        1.0000            85.71%
    689    82        2.0000   136        7.0000        1.0000    25709   85.71%
    720   110        1.0000   187        7.0000        1.0000    28097   85.71%
    757   128    infeasible              7.0000        1.0000    32373   85.71%
    790   155        1.0000   256        7.0000        1.0000    34860   85.71%
*   819+  126                            6.0000        1.0000            83.33%
    821   125    infeasible              6.0000        1.0000    37476   83.33%
    839   141        1.0000   279        6.0000        1.0000    39735   83.33%
Elapsed time = 25.15 sec. (33763.59 ticks, tree = 4.58 MB, solutions = 9)
    862   142        1.0000   226        6.0000        1.0000    43895   83.33%
    887   163        cutoff              6.0000        1.0000    45468   83.33%
    911   167        4.0000   182        6.0000        1.0000    49721   83.33%
    935   181        1.0000   297        6.0000        1.0000    52452   83.33%
    953   187    infeasible              6.0000        1.0000    56260   83.33%
    979   197        5.0000   156        6.0000        1.0000    60421   83.33%
   1006   208        2.0000   561        6.0000        1.0000    63876   83.33%
   1029   227        1.0000   339        6.0000        1.0000    65762   83.33%
   1060   243    infeasible              6.0000        1.0000    67950   83.33%
   1089   254        3.0000   191        6.0000        1.0000    70957   83.33%
Elapsed time = 32.09 sec. (43480.94 ticks, tree = 8.88 MB, solutions = 9)
   1112   259        1.0000   673        6.0000        1.0000    73284   83.33%
   1133   272    infeasible              6.0000        1.0000    75099   83.33%
   1159   294        1.0000   246        6.0000        1.0000    76435   83.33%
   1188   300        3.0000   239        6.0000        1.0000    80541   83.33%
   1218   318        3.0000   404        6.0000        1.0000    81834   83.33%
   1267   345        3.0000   311        6.0000        1.0000    84219   83.33%
   1285   357        1.0000   195        6.0000        1.0000    85877   83.33%
   1309   358        5.0000   139        6.0000        1.0000    89678   83.33%
   1318   361        1.0000   228        6.0000        1.0000    91773   83.33%
   1341   368    infeasible              6.0000        1.0000    94817   83.33%
Elapsed time = 39.04 sec. (53297.75 ticks, tree = 21.06 MB, solutions = 9)
   1365   364    infeasible              6.0000        2.0000    99263   66.67%
   1386   361        2.0000   251        6.0000        2.0000   103336   66.67%
   1413   356    infeasible              6.0000        2.0000   108300   66.67%
   1439   350    infeasible              6.0000        2.0000   113317   66.67%
   1474   343    infeasible              6.0000        2.0000   117944   66.67%
   1503   342        2.0000   357        6.0000        2.0000   121787   66.67%
   1531   340        2.0000   228        6.0000        2.0000   124782   66.67%
   1560   345        2.0000   170        6.0000        2.0000   129160   66.67%

Clique cuts applied:  256
Implied bound cuts applied:  28
Mixed integer rounding cuts applied:  11
Zero-half cuts applied:  8
Gomory fractional cuts applied:  4

Root node processing (before b&c):
  Real time             =    6.62 sec. (7328.19 ticks)
Sequential b&c:
  Real time             =   38.38 sec. (53954.30 ticks)
                          ------------
Total (root+branch&cut) =   45.00 sec. (61282.49 ticks)
   | W
 L | 0 1 2 3 4 5 6 
------------------
 0 | 5 5 5 6 6 6 . 
 1 | 5 5 5 6 6 6 9 
 2 | 4 4 4 1 1 7 . 
 3 | 4 4 4 1 1 2 2 
 4 | 3 3 3 1 1 2 2 
 5 | 3 3 3 . 8 2 2 
 6 | . . . . . . . 
 7 | . . . . . . . 
 8 | . . . . . . . 
 9 | . . . . . . . 
10 | . . . . . . . 
11 | . . . . . . . 
12 | . . . . . . . 
13 | . . . . . . . 
14 | . . . . . . . 
15 | . . . . . . . 
16 | . . . . . . . 
17 | . . . . . . . 
18 | . . . . . . . 
19 | . . . . . . . 
20 | . . . . . . . 

Boxes' corners:      (w,l)
    Box 1 is at 
        top left     (3,2)
        bottom right (4,4)

    Box 2 is at 
        top left     (5,3)
        bottom right (6,5)

    Box 3 is at 
        top left     (0,4)
        bottom right (2,5)

    Box 4 is at 
        top left     (0,2)
        bottom right (2,3)

    Box 5 is at 
        top left     (0,0)
        bottom right (2,1)

    Box 6 is at 
        top left     (3,0)
        bottom right (5,1)

    Box 7 is at 
        top left     (5,2)
        bottom right (5,2)

    Box 8 is at 
        top left     (4,5)
        bottom right (4,5)

    Box 9 is at 
        top left     (6,1)
        bottom right (6,1)

    Roll length used: 6
In 45.19 seconds
